p cnf 206 892
98 109 116 173 0
90 92 93 97 0
68 76 87 101 0
91 121 124 131 0
108 112 139 146 0
83 179 181 0
130 160 190 0
71 72 126 132 137 0
195 198 0
69 75 86 102 0
66 67 88 125 0
79 135 0
63 64 144 0
96 100 129 0
80 106 0
61 65 74 94 0
60 118 0
59 114 123 140 0
119 142 0
148 150 151 0
111 154 0
62 156 0
103 157 205 0
85 115 145 0
105 158 159 0
128 163 165 0
107 169 0
99 170 0
174 176 0
113 138 141 147 177 0
178 180 0
182 184 186 187 188 0
149 152 161 189 191 0
133 168 192 193 0
82 89 194 196 197 0
117 153 155 172 199 0
110 175 200 201 202 204 0
70 206 0
57 58 0
54 56 0
53 143 0
51 52 95 0
-130 -132 0
-50 -130 0
-75 -130 0
-50 -132 0
-75 -132 0
-50 -75 0
-49 -79 0
-79 -96 0
-79 -164 0
-49 -96 0
-49 -164 0
-96 -164 0
-47 -205 0
-115 -205 0
-105 -205 0
-47 -115 0
-47 -105 0
-105 -115 0
-141 -182 0
-141 -192 0
-141 -199 0
-182 -192 0
-182 -199 0
-192 -199 0
-79 -130 0
-130 -205 0
-130 -141 0
-79 -205 0
-79 -141 0
-141 -205 0
-49 -132 0
-47 -132 0
-132 -182 0
-47 -49 0
-49 -182 0
-47 -182 0
-50 -96 0
-50 -115 0
-50 -192 0
-96 -115 0
-96 -192 0
-115 -192 0
-75 -164 0
-75 -105 0
-75 -199 0
-105 -164 0
-164 -199 0
-105 -199 0
-97 -116 0
-101 -116 0
-91 -116 0
-83 -116 0
-97 -101 0
-91 -97 0
-83 -97 0
-91 -101 0
-83 -101 0
-83 -91 0
-45 -135 0
-135 -144 0
-129 -135 0
-127 -135 0
-45 -144 0
-45 -129 0
-45 -127 0
-129 -144 0
-127 -144 0
-127 -129 0
-43 -44 0
-44 -74 0
-42 -44 0
-44 -123 0
-43 -74 0
-42 -43 0
-43 -123 0
-42 -74 0
-74 -123 0
-42 -123 0
-41 -148 0
-41 -167 0
-41 -136 0
-41 -203 0
-148 -167 0
-136 -148 0
-148 -203 0
-136 -167 0
-167 -203 0
-136 -203 0
-40 -58 0
-40 -78 0
-40 -56 0
-40 -95 0
-58 -78 0
-56 -58 0
-58 -95 0
-56 -78 0
-78 -95 0
-56 -95 0
-116 -135 0
-44 -116 0
-41 -116 0
-40 -116 0
-44 -135 0
-41 -135 0
-40 -135 0
-41 -44 0
-40 -44 0
-40 -41 0
-45 -97 0
-43 -97 0
-97 -148 0
-58 -97 0
-43 -45 0
-45 -148 0
-45 -58 0
-43 -148 0
-43 -58 0
-58 -148 0
-101 -144 0
-74 -101 0
-101 -167 0
-78 -101 0
-74 -144 0
-144 -167 0
-78 -144 0
-74 -167 0
-74 -78 0
-78 -167 0
-91 -129 0
-42 -91 0
-91 -136 0
-56 -91 0
-42 -129 0
-129 -136 0
-56 -129 0
-42 -136 0
-42 -56 0
-56 -136 0
-83 -127 0
-83 -123 0
-83 -203 0
-83 -95 0
-123 -127 0
-127 -203 0
-95 -127 0
-123 -203 0
-95 -123 0
-95 -203 0
-68 -139 0
-68 -183 0
-139 -183 0
-82 -189 0
-110 -189 0
-82 -110 0
-134 -143 0
-39 -134 0
-39 -143 0
-68 -189 0
-68 -134 0
-134 -189 0
-82 -139 0
-139 -143 0
-82 -143 0
-110 -183 0
-39 -183 0
-39 -110 0
-93 -109 0
-109 -112 0
-37 -109 0
-93 -112 0
-37 -93 0
-37 -112 0
-126 -190 0
-36 -190 0
-67 -190 0
-36 -126 0
-67 -126 0
-36 -67 0
-34 -151 0
-34 -154 0
-34 -156 0
-151 -154 0
-151 -156 0
-154 -156 0
-138 -184 0
-89 -138 0
-138 -200 0
-89 -184 0
-184 -200 0
-89 -200 0
-109 -190 0
-34 -109 0
-109 -138 0
-34 -190 0
-138 -190 0
-34 -138 0
-93 -126 0
-93 -151 0
-93 -184 0
-126 -151 0
-126 -184 0
-151 -184 0
-36 -112 0
-112 -154 0
-89 -112 0
-36 -154 0
-36 -89 0
-89 -154 0
-37 -67 0
-37 -156 0
-37 -200 0
-67 -156 0
-67 -200 0
-156 -200 0
-87 -98 0
-98 -131 0
-98 -185 0
-87 -131 0
-87 -185 0
-131 -185 0
-33 -103 0
-85 -103 0
-103 -163 0
-33 -85 0
-33 -163 0
-85 -163 0
-113 -191 0
-113 -133 0
-113 -201 0
-133 -191 0
-191 -201 0
-133 -201 0
-32 -35 0
-35 -54 0
-31 -35 0
-32 -54 0
-31 -32 0
-31 -54 0
-98 -103 0
-98 -113 0
-35 -98 0
-103 -113 0
-35 -103 0
-35 -113 0
-33 -87 0
-87 -191 0
-32 -87 0
-33 -191 0
-32 -33 0
-32 -191 0
-85 -131 0
-131 -133 0
-54 -131 0
-85 -133 0
-54 -85 0
-54 -133 0
-163 -185 0
-185 -201 0
-31 -185 0
-163 -201 0
-31 -163 0
-31 -201 0
-137 -166 0
-166 -195 0
-30 -166 0
-86 -166 0
-88 -166 0
-137 -195 0
-30 -137 0
-86 -137 0
-88 -137 0
-30 -195 0
-86 -195 0
-88 -195 0
-30 -86 0
-30 -88 0
-86 -88 0
-28 -29 0
-29 -64 0
-27 -29 0
-26 -29 0
-29 -106 0
-28 -64 0
-27 -28 0
-26 -28 0
-28 -106 0
-27 -64 0
-26 -64 0
-64 -106 0
-26 -27 0
-27 -106 0
-26 -106 0
-24 -25 0
-25 -61 0
-25 -60 0
-25 -59 0
-25 -142 0
-24 -61 0
-24 -60 0
-24 -59 0
-24 -142 0
-60 -61 0
-59 -61 0
-61 -142 0
-59 -60 0
-60 -142 0
-59 -142 0
-55 -77 0
-48 -77 0
-23 -77 0
-77 -158 0
-77 -165 0
-48 -55 0
-23 -55 0
-55 -158 0
-55 -165 0
-23 -48 0
-48 -158 0
-48 -165 0
-23 -158 0
-23 -165 0
-158 -165 0
-178 -186 0
-149 -178 0
-178 -194 0
-155 -178 0
-178 -202 0
-149 -186 0
-186 -194 0
-155 -186 0
-186 -202 0
-149 -194 0
-149 -155 0
-149 -202 0
-155 -194 0
-194 -202 0
-155 -202 0
-57 -206 0
-46 -206 0
-53 -206 0
-52 -206 0
-104 -206 0
-46 -57 0
-53 -57 0
-52 -57 0
-57 -104 0
-46 -53 0
-46 -52 0
-46 -104 0
-52 -53 0
-53 -104 0
-52 -104 0
-29 -166 0
-25 -166 0
-77 -166 0
-166 -178 0
-166 -206 0
-25 -29 0
-29 -77 0
-29 -178 0
-29 -206 0
-25 -77 0
-25 -178 0
-25 -206 0
-77 -178 0
-77 -206 0
-178 -206 0
-28 -137 0
-24 -137 0
-55 -137 0
-137 -186 0
-57 -137 0
-24 -28 0
-28 -55 0
-28 -186 0
-28 -57 0
-24 -55 0
-24 -186 0
-24 -57 0
-55 -186 0
-55 -57 0
-57 -186 0
-64 -195 0
-61 -195 0
-48 -195 0
-149 -195 0
-46 -195 0
-61 -64 0
-48 -64 0
-64 -149 0
-46 -64 0
-48 -61 0
-61 -149 0
-46 -61 0
-48 -149 0
-46 -48 0
-46 -149 0
-27 -30 0
-30 -60 0
-23 -30 0
-30 -194 0
-30 -53 0
-27 -60 0
-23 -27 0
-27 -194 0
-27 -53 0
-23 -60 0
-60 -194 0
-53 -60 0
-23 -194 0
-23 -53 0
-53 -194 0
-26 -86 0
-59 -86 0
-86 -158 0
-86 -155 0
-52 -86 0
-26 -59 0
-26 -158 0
-26 -155 0
-26 -52 0
-59 -158 0
-59 -155 0
-52 -59 0
-155 -158 0
-52 -158 0
-52 -155 0
-88 -106 0
-88 -142 0
-88 -165 0
-88 -202 0
-88 -104 0
-106 -142 0
-106 -165 0
-106 -202 0
-104 -106 0
-142 -165 0
-142 -202 0
-104 -142 0
-165 -202 0
-104 -165 0
-104 -202 0
-92 -173 0
-121 -173 0
-146 -173 0
-173 -179 0
-22 -173 0
-92 -121 0
-92 -146 0
-92 -179 0
-22 -92 0
-121 -146 0
-121 -179 0
-22 -121 0
-146 -179 0
-22 -146 0
-22 -179 0
-72 -160 0
-160 -171 0
-21 -160 0
-69 -160 0
-66 -160 0
-72 -171 0
-21 -72 0
-69 -72 0
-66 -72 0
-21 -171 0
-69 -171 0
-66 -171 0
-21 -69 0
-21 -66 0
-66 -69 0
-19 -150 0
-19 -81 0
-19 -111 0
-18 -19 0
-19 -62 0
-81 -150 0
-111 -150 0
-18 -150 0
-62 -150 0
-81 -111 0
-18 -81 0
-62 -81 0
-18 -111 0
-62 -111 0
-18 -62 0
-17 -157 0
-145 -157 0
-38 -157 0
-157 -159 0
-128 -157 0
-17 -145 0
-17 -38 0
-17 -159 0
-17 -128 0
-38 -145 0
-145 -159 0
-128 -145 0
-38 -159 0
-38 -128 0
-128 -159 0
-169 -170 0
-73 -169 0
-16 -169 0
-15 -169 0
-122 -169 0
-73 -170 0
-16 -170 0
-15 -170 0
-122 -170 0
-16 -73 0
-15 -73 0
-73 -122 0
-15 -16 0
-16 -122 0
-15 -122 0
-177 -187 0
-168 -177 0
-177 -196 0
-117 -177 0
-177 -204 0
-168 -187 0
-187 -196 0
-117 -187 0
-187 -204 0
-168 -196 0
-117 -168 0
-168 -204 0
-117 -196 0
-196 -204 0
-117 -204 0
-160 -173 0
-19 -173 0
-157 -173 0
-169 -173 0
-173 -177 0
-19 -160 0
-157 -160 0
-160 -169 0
-160 -177 0
-19 -157 0
-19 -169 0
-19 -177 0
-157 -169 0
-157 -177 0
-169 -177 0
-72 -92 0
-92 -150 0
-17 -92 0
-92 -170 0
-92 -187 0
-72 -150 0
-17 -72 0
-72 -170 0
-72 -187 0
-17 -150 0
-150 -170 0
-150 -187 0
-17 -170 0
-17 -187 0
-170 -187 0
-121 -171 0
-81 -121 0
-121 -145 0
-73 -121 0
-121 -168 0
-81 -171 0
-145 -171 0
-73 -171 0
-168 -171 0
-81 -145 0
-73 -81 0
-81 -168 0
-73 -145 0
-145 -168 0
-73 -168 0
-21 -146 0
-111 -146 0
-38 -146 0
-16 -146 0
-146 -196 0
-21 -111 0
-21 -38 0
-16 -21 0
-21 -196 0
-38 -111 0
-16 -111 0
-111 -196 0
-16 -38 0
-38 -196 0
-16 -196 0
-69 -179 0
-18 -179 0
-159 -179 0
-15 -179 0
-117 -179 0
-18 -69 0
-69 -159 0
-15 -69 0
-69 -117 0
-18 -159 0
-15 -18 0
-18 -117 0
-15 -159 0
-117 -159 0
-15 -117 0
-22 -66 0
-22 -62 0
-22 -128 0
-22 -122 0
-22 -204 0
-62 -66 0
-66 -128 0
-66 -122 0
-66 -204 0
-62 -128 0
-62 -122 0
-62 -204 0
-122 -128 0
-128 -204 0
-122 -204 0
-13 -14 0
-14 -65 0
-14 -140 0
-13 -65 0
-13 -140 0
-65 -140 0
-12 -107 0
-107 -174 0
-107 -120 0
-12 -174 0
-12 -120 0
-120 -174 0
-147 -180 0
-147 -161 0
-147 -172 0
-161 -180 0
-172 -180 0
-161 -172 0
-20 -70 0
-11 -20 0
-20 -51 0
-11 -70 0
-51 -70 0
-11 -51 0
-14 -107 0
-14 -147 0
-14 -20 0
-107 -147 0
-20 -107 0
-20 -147 0
-12 -13 0
-13 -180 0
-13 -70 0
-12 -180 0
-12 -70 0
-70 -180 0
-65 -174 0
-65 -161 0
-11 -65 0
-161 -174 0
-11 -174 0
-11 -161 0
-120 -140 0
-140 -172 0
-51 -140 0
-120 -172 0
-51 -120 0
-51 -172 0
-76 -90 0
-90 -124 0
-90 -108 0
-90 -181 0
-10 -90 0
-76 -124 0
-76 -108 0
-76 -181 0
-10 -76 0
-108 -124 0
-124 -181 0
-10 -124 0
-108 -181 0
-10 -108 0
-10 -181 0
-71 -198 0
-9 -71 0
-8 -71 0
-71 -102 0
-71 -125 0
-9 -198 0
-8 -198 0
-102 -198 0
-125 -198 0
-8 -9 0
-9 -102 0
-9 -125 0
-8 -102 0
-8 -125 0
-102 -125 0
-63 -84 0
-84 -100 0
-84 -162 0
-7 -84 0
-80 -84 0
-63 -100 0
-63 -162 0
-7 -63 0
-63 -80 0
-100 -162 0
-7 -100 0
-80 -100 0
-7 -162 0
-80 -162 0
-7 -80 0
-6 -94 0
-5 -6 0
-6 -118 0
-6 -114 0
-6 -119 0
-5 -94 0
-94 -118 0
-94 -114 0
-94 -119 0
-5 -118 0
-5 -114 0
-5 -119 0
-114 -118 0
-118 -119 0
-114 -119 0
-99 -176 0
-4 -99 0
-3 -99 0
-2 -99 0
-1 -99 0
-4 -176 0
-3 -176 0
-2 -176 0
-1 -176 0
-3 -4 0
-2 -4 0
-1 -4 0
-2 -3 0
-1 -3 0
-1 -2 0
-152 -188 0
-188 -193 0
-188 -197 0
-153 -188 0
-175 -188 0
-152 -193 0
-152 -197 0
-152 -153 0
-152 -175 0
-193 -197 0
-153 -193 0
-175 -193 0
-153 -197 0
-175 -197 0
-153 -175 0
-71 -90 0
-84 -90 0
-6 -90 0
-90 -99 0
-90 -188 0
-71 -84 0
-6 -71 0
-71 -99 0
-71 -188 0
-6 -84 0
-84 -99 0
-84 -188 0
-6 -99 0
-6 -188 0
-99 -188 0
-76 -198 0
-63 -76 0
-76 -94 0
-76 -176 0
-76 -152 0
-63 -198 0
-94 -198 0
-176 -198 0
-152 -198 0
-63 -94 0
-63 -176 0
-63 -152 0
-94 -176 0
-94 -152 0
-152 -176 0
-9 -124 0
-100 -124 0
-5 -124 0
-4 -124 0
-124 -193 0
-9 -100 0
-5 -9 0
-4 -9 0
-9 -193 0
-5 -100 0
-4 -100 0
-100 -193 0
-4 -5 0
-5 -193 0
-4 -193 0
-8 -108 0
-108 -162 0
-108 -118 0
-3 -108 0
-108 -197 0
-8 -162 0
-8 -118 0
-3 -8 0
-8 -197 0
-118 -162 0
-3 -162 0
-162 -197 0
-3 -118 0
-118 -197 0
-3 -197 0
-102 -181 0
-7 -181 0
-114 -181 0
-2 -181 0
-153 -181 0
-7 -102 0
-102 -114 0
-2 -102 0
-102 -153 0
-7 -114 0
-2 -7 0
-7 -153 0
-2 -114 0
-114 -153 0
-2 -153 0
-10 -125 0
-10 -80 0
-10 -119 0
-1 -10 0
-10 -175 0
-80 -125 0
-119 -125 0
-1 -125 0
-125 -175 0
-80 -119 0
-1 -80 0
-80 -175 0
-1 -119 0
-119 -175 0
-1 -175 0
